%mem=50GB
%nprocshared=16
#p opt pop=MKUFF wB97XD/6-311g(d,p)

3G_1m_0sc_Br_opt_pop.gjf

0 1
 C                  0.15200000    0.70600000   -0.00100000
 C                  1.39800000    1.31300000   -0.00100000
 C                  1.35600000    2.73600000   -0.00100000
 C                  0.07800000    3.21200000   -0.00100000
 S                 -1.09600000    1.94500000   -0.00100000
 O                  2.52300000    0.54200000    0.00000000
 H                  2.22900000    3.37200000    0.00000000
 C                 -0.15200000   -0.70600000   -0.00100000
 C                 -1.39800000   -1.31300000   -0.00100000
 C                 -1.35700000   -2.73600000   -0.00100000
 C                 -0.07800000   -3.21200000   -0.00100000
 S                  1.09600000   -1.94600000    0.00000000
 O                 -2.52300000   -0.54200000   -0.00100000
 H                 -2.22900000   -3.37300000   -0.00100000
 C                  3.78800000    1.19700000    0.00000000
 H                  3.89900000    1.82600000    0.89000000
 H                  3.89900000    1.82600000   -0.89100000
 C                  4.85000000    0.11300000    0.00000000
 H                  4.73500000   -0.52300000    0.88900000
 H                  4.73500000   -0.52300000   -0.88900000
 O                  6.10400000    0.76800000    0.00000000
 C                  7.20600000   -0.12200000    0.00000000
 H                  7.18900000   -0.76800000    0.88900000
 H                  7.18900000   -0.76800000   -0.88900000
 C                  8.47200000    0.71600000    0.00000000
 H                  8.48700000    1.36300000    0.88900000
 H                  8.48800000    1.36300000   -0.88800000
 O                  9.57100000   -0.17400000    0.00000000
 C                 10.82700000    0.48000000    0.00100000
 H                 10.93800000    1.11700000    0.88900000
 H                 10.93900000    1.11700000   -0.88800000
 C                 11.90300000   -0.59100000    0.00100000
 H                 11.78900000   -1.22900000   -0.88800000
 H                 11.78900000   -1.22900000    0.89000000
 O                 13.15500000    0.06400000    0.00100000
 C                 14.24600000   -0.83300000    0.00100000
 H                 14.24200000   -1.47600000   -0.89100000
 H                 15.15700000   -0.23400000    0.00100000
 H                 14.24200000   -1.47600000    0.89300000
 C                 -3.78800000   -1.19800000   -0.00100000
 H                 -3.89900000   -1.82600000    0.89000000
 H                 -3.89900000   -1.82600000   -0.89100000
 C                 -4.85000000   -0.11300000    0.00000000
 H                 -4.73500000    0.52200000    0.88900000
 H                 -4.73500000    0.52200000   -0.89000000
 O                 -6.10400000   -0.76800000    0.00000000
 C                 -7.20600000    0.12200000    0.00000000
 H                 -7.18900000    0.76900000    0.88900000
 H                 -7.18900000    0.76800000   -0.88900000
 C                 -8.47200000   -0.71600000    0.00000000
 H                 -8.48800000   -1.36300000    0.88900000
 H                 -8.48800000   -1.36300000   -0.88800000
 O                 -9.57100000    0.17500000    0.00000000
 C                -10.82700000   -0.47900000    0.00100000
 H                -10.93800000   -1.11600000    0.89000000
 H                -10.93900000   -1.11600000   -0.88800000
 C                -11.90200000    0.59200000    0.00100000
 H                -11.78900000    1.23000000   -0.88800000
 H                -11.78800000    1.23000000    0.89000000
 O                -13.15500000   -0.06300000    0.00100000
 C                -14.24600000    0.83400000    0.00100000
 H                -14.24200000    1.47700000   -0.89100000
 H                -15.15700000    0.23500000    0.00200000
 H                -14.24100000    1.47700000    0.89300000
 Br                -0.15708503    5.12762884    0.00007664
 Br                 0.25292729   -5.11341673    0.00024063

