%mem=50GB
%nprocshared=8
#p opt freq=raman b3lyp/6-311g**

O2G_2m_7sc_opt_freq.gjf

0 1
 C                  4.64366000   -0.53970100    0.00009200
 C                  5.41896100    0.60643800    0.00027100
 C                  6.83392400    0.39694500    0.00037400
 C                  7.18281800   -0.91818500    0.00027500
 S                  5.75056800   -2.00497800    0.00004400
 O                  4.78955500    1.84687900    0.00034700
 H                  7.55693300    1.19705400    0.00051600
 C                  3.22329900   -0.66511300   -0.00004200
 C                  2.44218500   -1.80851400   -0.00023000
 C                  1.03763100   -1.60426400   -0.00033900
 C                  0.65599600   -0.28237100   -0.00023300
 S                  2.12443000    0.80334500    0.00001500
 O                  3.07098600   -3.04955600   -0.00031500
 H                  0.32148600   -2.41079100   -0.00050200
 C                  5.60298700    3.05729300    0.00042700
 H                  6.23230900    3.09276200   -0.89057800
 H                  6.23222300    3.09270100    0.89149500
 C                  2.25451700   -4.25777000   -0.00043300
 H                  1.62489000   -4.29134800    0.89046100
 H                  1.62499500   -4.29124100   -0.89140500
 H                  8.16679300   -1.35079700    0.00031700
 C                 -3.22329900    0.66511300   -0.00025500
 C                 -2.44218500    1.80851400   -0.00027100
 C                 -1.03763200    1.60426400   -0.00030800
 C                 -0.65599700    0.28237000   -0.00030200
 S                 -2.12443000   -0.80334500   -0.00053200
 O                 -3.07098700    3.04955500   -0.00015500
 H                 -0.32148700    2.41079100   -0.00025500
 C                 -4.64366000    0.53970000   -0.00009900
 C                 -5.41896200   -0.60643800   -0.00012200
 C                 -6.83392400   -0.39694500    0.00008900
 C                 -7.18281800    0.91818500    0.00030900
 S                 -5.75056800    2.00497800    0.00015800
 O                 -4.78955600   -1.84687900   -0.00044400
 H                 -7.55693400   -1.19705300    0.00007300
 C                 -2.25451800    4.25777000   -0.00038200
 H                 -1.62508200    4.29122000   -0.89141600
 H                 -1.62480500    4.29136800    0.89045100
 C                 -5.60298700   -3.05729300    0.00088100
 H                 -6.23172100   -3.09207900    0.89232700
 H                 -6.23281300   -3.09338300   -0.88974500
 H                 -8.16679300    1.35079700    0.00050100
 C                 -3.22464200    5.42190200   -0.00031300
 H                 -3.86163600    5.38355200   -0.88966500
 H                 -3.86142800    5.38360800    0.88919000
 C                  4.62984500    4.21907600    0.00042200
 H                  3.99313100    4.17887800   -0.88913300
 H                  3.99303400    4.17880200    0.88990400
 C                  3.22464100   -5.42190200   -0.00043500
 H                  3.86155100   -5.38356900   -0.88984800
 H                  3.86151200   -5.38359200    0.88900700
 C                 -4.62984400   -4.21907500    0.00091300
 H                 -3.99311600   -4.17876100   -0.88862800
 H                 -3.99304800   -4.17891400    0.89040900
 O                  5.44504400    5.41725400    0.00051800
 O                 -2.40656300    6.61882700   -0.00044800
 O                  2.40656200   -6.61882700   -0.00047100
 O                 -5.44504100   -5.41725400    0.00089700
 C                  4.67985200    6.64818900    0.00050800
 H                  4.04947500    6.72309600   -0.89170100
 H                  4.04935900    6.72303800    0.89263900
 C                 -3.16948700    7.85072600   -0.00042300
 H                 -3.79991800    7.92678700   -0.89260600
 H                 -3.79971600    7.92687700    0.89189400
 C                 -4.67984700   -6.64819000    0.00056800
 H                 -4.04956100   -6.72290900   -0.89171800
 H                 -4.04926500   -6.72322300    0.89262100
 C                  3.16948600   -7.85072600   -0.00057200
 H                  3.79983700   -7.92689300    0.89165800
 H                  3.79979400   -7.92677300   -0.89284200
 C                  5.70782139    7.79487070    0.00061293
 H                  6.32153044    7.72378186   -0.87300459
 H                  6.32142653    7.72371580    0.87429806
 C                 -2.14022436    8.99624701   -0.00059882
 H                 -1.52658814    8.92451278    0.87301711
 H                 -1.52670820    8.92435248   -0.87428589
 C                 -5.70781718   -7.79487100    0.00054815
 H                 -6.32156715   -7.72364994   -0.87302986
 H                 -6.32138130   -7.72384748    0.87427278
 C                  2.14022257   -8.99624631   -0.00062304
 H                  1.52667927   -8.92449996    0.87305715
 H                  1.52661358   -8.92436307   -0.87424585
 O                  5.02212168    9.04974755    0.00062006
 O                 -2.82450700   10.25189714   -0.00066699
 O                 -5.02211834   -9.04974831    0.00033382
 O                  2.82450435  -10.25189691   -0.00074714
 C                  5.97612940   10.11500304    0.00074079
 H                  6.59109995   10.04314384   -0.87192608
 H                  5.46258297   11.05370776   -0.00113461
 H                  6.58854293   10.04523647    0.87537345
 C                 -1.86929734   11.31607497   -0.00092214
 H                 -2.38178387   12.25535822   -0.00304888
 H                 -1.25691108   11.24587877    0.87369524
 H                 -1.25446007   11.24326047   -0.87360374
 C                 -5.97612677  -10.11500316    0.00042747
 H                 -6.58999079  -10.04411236   -0.87309727
 H                 -5.46257956  -11.05370930    0.00024443
 H                 -6.58964817  -10.04426627    0.87420535
 C                  1.86929395  -11.31607409   -0.00082319
 H                  1.25564953  -11.24447597   -0.87444453
 H                  2.38178115  -12.25535938   -0.00094003
 H                  1.25571358  -11.24465902    0.87285811

