! Structure optimisation of oxy-bi-thiophene two monomer with methyl group 
%mem=50GB
%nprocshared=8
#p opt freq=Raman b3lyp/6-311g

OBT_2m_opt_freq.gjf

0 1
 C                       11.50290911   -4.49716505    0.00000000
 C                       11.14671159   -5.83276279    0.00000000
 C                       12.23549593   -6.76182342    0.00000000
 C                       13.45590986   -6.16042934    0.00000000
 S                       13.33240616   -4.36780672    0.00000000
 O                        9.79613092   -6.16909723    0.00000000
 H                       12.10824380   -7.83305397    0.00000000
 C                       10.66192130   -3.34031091    0.00000000
 C                       11.01811882   -2.00471317    0.00000000
 C                        9.92933448   -1.07565254    0.00000000
 C                        8.70892056   -1.67704662    0.00000000
 S                        8.83244739   -3.47066897    0.00000000
 O                       12.36867636   -1.66737900    0.00000000
 H                       10.05658662   -0.00442198    0.00000000
 C                        9.42653367   -7.57402351    0.00000000
 H                        9.79630563   -8.07860422    0.89400000
 H                        9.79730536   -8.07858109   -0.89500000
 H                        8.34138450   -7.58012906   -0.00100000
 C                       12.73829675   -0.26345245    0.00000000
 H                       13.82342279   -0.25634717    0.00000000
 H                       12.36752505    0.24110513   -0.89500000
 H                       12.36752505    0.24110513    0.89400000
 H                       14.42873362   -6.61704617    0.00100000
 C                        6.36860962    1.69477292    0.00000000
 C                        5.66370256    0.50573801    0.00000000
 C                        6.45987672   -0.68367853    0.00000000
 C                        7.79761889   -0.43562434    0.00000000
 S                        8.16467316    1.32335836    0.00000000
 O                        4.27251813    0.54810408    0.00000000
 H                        6.04700610   -1.68030577    0.00000000
 C                        5.87270305    3.03628277    0.00000000
 C                        6.57761012    4.22531768    0.00000000
 C                        5.78143596    5.41473422    0.00000000
 C                        4.44369378    5.16668004    0.00000000
 S                        4.07639078    3.40672876    0.00000000
 O                        7.96904328    4.18392019    0.00000000
 H                        6.19430658    6.41136146    0.00000000
 C                        3.53591985   -0.70403129    0.00000000
 H                        3.75506815   -1.28995537    0.89400000
 H                        3.75603672   -1.29020410   -0.89500000
 H                        2.48974530   -0.41575226   -0.00100000
 C                        8.70539282    5.43508698    0.00000000
 H                        9.75181611    5.14777652    0.00000000
 H                        8.48527595    6.02125979   -0.89500000
 H                        8.48527595    6.02125979    0.89400000
 H                        3.63107112    5.86990788    0.00100000

