! Structure optimisation of oxythiophene with methyl group
%mem=1GB
%nprocshared=4
#p opt freq=Raman b3lyp/6-311g

OT_opt_freq.com

0 1
 C                  0.63951065    1.97071027   -0.97735634
 C                 -0.00761937    0.95775076   -0.24201183
 C                 -0.52500490    1.41259883    1.00082949
 C                 -0.28180587    2.78059396    1.23543239
 S                  0.78360647    3.44035474   -0.00884923
 O                 -0.14360595   -0.38793103   -0.70628348
 H                 -1.05591111    0.78286504    1.68381849
 C                  0.96980399   -0.71926747   -1.54021062
 H                  1.87605298   -0.62540780   -0.97913743
 H                  0.99841813   -0.05414146   -2.37787919
 H                  0.86805179   -1.72617622   -1.88760270
 H                  0.99026152    1.86552912   -1.98274719
 H                 -0.68904446    3.34169778    2.05042885

