%mem=50GB
%nprocshared=4
#p pop=MKUFF b3lyp/lanl2dz

O3G_1m_0sc_Sn_pop.gjf

0 1
 C                  0.15200000    0.70600000   -0.00100000
 C                  1.39800000    1.31300000   -0.00100000
 C                  1.35600000    2.73600000   -0.00100000
 C                  0.07800000    3.21200000   -0.00100000
 S                 -1.09600000    1.94500000   -0.00100000
 O                  2.52300000    0.54200000    0.00000000
 H                  2.22900000    3.37200000    0.00000000
 C                 -0.15200000   -0.70600000   -0.00100000
 C                 -1.39800000   -1.31300000   -0.00100000
 C                 -1.35700000   -2.73600000   -0.00100000
 C                 -0.07800000   -3.21200000   -0.00100000
 S                  1.09600000   -1.94600000    0.00000000
 O                 -2.52300000   -0.54200000   -0.00100000
 H                 -2.22900000   -3.37300000   -0.00100000
 C                  3.78800000    1.19700000    0.00000000
 H                  3.89900000    1.82600000    0.89000000
 H                  3.89900000    1.82600000   -0.89100000
 C                  4.85000000    0.11300000    0.00000000
 H                  4.73500000   -0.52300000    0.88900000
 H                  4.73500000   -0.52300000   -0.88900000
 O                  6.10400000    0.76800000    0.00000000
 C                  7.20600000   -0.12200000    0.00000000
 H                  7.18900000   -0.76800000    0.88900000
 H                  7.18900000   -0.76800000   -0.88900000
 C                  8.47200000    0.71600000    0.00000000
 H                  8.48700000    1.36300000    0.88900000
 H                  8.48800000    1.36300000   -0.88800000
 O                  9.57100000   -0.17400000    0.00000000
 C                 10.82700000    0.48000000    0.00100000
 H                 10.93800000    1.11700000    0.88900000
 H                 10.93900000    1.11700000   -0.88800000
 C                 11.90300000   -0.59100000    0.00100000
 H                 11.78900000   -1.22900000   -0.88800000
 H                 11.78900000   -1.22900000    0.89000000
 O                 13.15500000    0.06400000    0.00100000
 C                 14.24600000   -0.83300000    0.00100000
 H                 14.24200000   -1.47600000   -0.89100000
 H                 15.15700000   -0.23400000    0.00100000
 H                 14.24200000   -1.47600000    0.89300000
 C                 -3.78800000   -1.19800000   -0.00100000
 H                 -3.89900000   -1.82600000    0.89000000
 H                 -3.89900000   -1.82600000   -0.89100000
 C                 -4.85000000   -0.11300000    0.00000000
 H                 -4.73500000    0.52200000    0.88900000
 H                 -4.73500000    0.52200000   -0.89000000
 O                 -6.10400000   -0.76800000    0.00000000
 C                 -7.20600000    0.12200000    0.00000000
 H                 -7.18900000    0.76900000    0.88900000
 H                 -7.18900000    0.76800000   -0.88900000
 C                 -8.47200000   -0.71600000    0.00000000
 H                 -8.48800000   -1.36300000    0.88900000
 H                 -8.48800000   -1.36300000   -0.88800000
 O                 -9.57100000    0.17500000    0.00000000
 C                -10.82700000   -0.47900000    0.00100000
 H                -10.93800000   -1.11600000    0.89000000
 H                -10.93900000   -1.11600000   -0.88800000
 C                -11.90200000    0.59200000    0.00100000
 H                -11.78900000    1.23000000   -0.88800000
 H                -11.78800000    1.23000000    0.89000000
 O                -13.15500000   -0.06300000    0.00100000
 C                -14.24600000    0.83400000    0.00100000
 H                -14.24200000    1.47700000   -0.89100000
 H                -15.15700000    0.23500000    0.00200000
 H                -14.24100000    1.47700000    0.89300000
 Sn                -0.21800000    5.33100000    0.00000000
 C                  0.50500000    6.35400000    1.77200000
 H                  1.56600000    6.47500000    1.70600000
 H                  0.04100000    7.31600000    1.84300000
 H                  0.26500000    5.77700000    2.64000000
 C                 -2.38800000    5.33100000    0.00000000
 H                 -2.74500000    4.82900000   -0.87500000
 H                 -2.74500000    4.82500000    0.87300000
 H                 -2.74500000    6.34000000    0.00200000
 C                  0.50500000    6.35400000   -1.77200000
 H                  0.08100000    7.33600000   -1.81500000
 H                  1.57200000    6.42800000   -1.73100000
 H                  0.21900000    5.80400000   -2.64300000
 Sn                 0.34600000   -5.31000000    0.00000000
 C                  1.73500000   -6.13200000   -1.45100000
 H                  2.73800000   -5.96700000   -1.11800000
 H                  1.56200000   -7.18300000   -1.55400000
 H                  1.58900000   -5.65200000   -2.39600000
 C                  1.40900000   -5.90200000    1.79700000
 H                  1.37600000   -6.96700000    1.89600000
 H                  2.42700000   -5.58100000    1.73100000
 H                  0.94700000   -5.45000000    2.65000000
 C                 -1.41200000   -6.58200000    0.00100000
 H                 -2.00800000   -6.36600000    0.86200000
 H                 -1.98400000   -6.40000000   -0.88500000
 H                 -1.10900000   -7.60800000    0.02500000

