%mem=50GB
%nprocshared=16
#p opt b3lyp/6-311g(d,p)

OBT_1m_14sc_Sn_opt.gjf

0 1
 C                 -0.06094376    1.27101978    0.17552584
 C                  1.18505624    1.87801978    0.17552584
 C                  1.14305624    3.30101978    0.17552584
 C                 -0.13494376    3.77701978    0.17552584
 S                 -1.30894376    2.51001978    0.17552584
 O                  2.31005624    1.10701978    0.17652584
 H                  2.01605624    3.93701978    0.17652584
 C                 -0.36494376   -0.14098022    0.17552584
 C                 -1.61094376   -0.74798022    0.17552584
 C                 -1.56994376   -2.17098022    0.17552584
 C                 -0.29094376   -2.64698022    0.17552584
 S                  0.88305624   -1.38098022    0.17652584
 O                 -2.73594376    0.02301978    0.17552584
 H                 -2.44194376   -2.80798022    0.17552584
 C                  3.58744360    1.74967218    0.18992066
 H                  3.68612766    2.36528196   -0.67966893
 H                  3.67256842    2.35581596    1.06755582
 C                  4.69854363    0.68334735    0.19276622
 H                  4.60401124    0.07207335    1.06586857
 H                  4.60922911    0.07284752   -0.68142647
 C                  6.07424535    1.37546388    0.19718107
 H                  6.84623874    0.63457565    0.20047441
 H                  6.16929235    1.98571971   -0.67657741
 C                  6.20205658    2.25559314    1.45441486
 H                  5.82638670    3.23508815    1.24379276
 H                  5.63753386    1.82114092    2.25282914
 C                  7.68304211    2.35126787    1.86566686
 H                  8.25901355    2.71788414    1.04180437
 H                  7.78044069    3.02054596    2.69481122
 C                  8.19487763    0.95602913    2.26931679
 H                  7.46037344    0.46829512    2.87555034
 H                  8.37499366    0.37396497    1.38973761
 C                  9.50461746    1.10050052    3.06637990
 H                  9.90370493    0.13001098    3.27561476
 H                  9.30807750    1.61116051    3.98588978
 C                 10.52283972    1.90678265    2.23889421
 H                 10.29898176    2.95023127    2.31637064
 H                 10.46781428    1.60535610    1.21370436
 C                 11.94244512    1.64510742    2.77540757
 H                 11.97670539    1.87387748    3.82010394
 H                 12.19573583    0.61614952    2.62711918
 C                 12.94819148    2.53510447    2.02176342
 H                 12.69875772    3.56422174    2.17538772
 H                 12.90926400    2.31090725    0.97623950
 C                 14.36896199    2.26661804    2.55178812
 H                 14.62137681    1.23930997    2.39108687
 H                 14.40586952    2.48336737    3.59895456
 C                 15.37332402    3.16473029    1.80596556
 H                 15.12170001    4.19206071    1.96776041
 H                 15.33545910    2.94891944    0.75863948
 C                 16.79433326    2.89486071    2.33464616
 H                 17.49174763    3.52130921    1.81882112
 H                 16.83132454    3.10742961    3.38266625
 C                 17.15834682    1.41743351    2.09736363
 H                 16.76993770    0.82158037    2.89673675
 H                 16.73535297    1.09029134    1.17056581
 H                 18.22266825    1.31390518    2.05992327
 C                 -3.26751089   -0.88671589   -0.79128200
 H                 -2.51942600   -1.10535434   -1.52440288
 H                 -3.56453079   -1.79177240   -0.30388904
 C                 -4.48916394   -0.24915019   -1.47879476
 H                 -4.16033613    0.37446229   -2.28370453
 H                 -5.12546912   -1.01957190   -1.86150366
 C                 -5.26827897    0.59971072   -0.45702427
 H                 -4.90906862    1.60728821   -0.48262765
 H                 -5.12737779    0.19563534    0.52367443
 C                 -6.76718037    0.57997942   -0.80987735
 H                 -7.29520592    1.24689218   -0.16078846
 H                 -6.89875718    0.89156911   -1.82501252
 C                 -7.31674687   -0.84806385   -0.63589731
 H                 -7.00321952   -1.45379177   -1.46033305
 H                 -6.94309158   -1.26542299    0.27574576
 C                 -8.85534242   -0.80362609   -0.58743067
 H                 -9.23999027   -1.80141597   -0.55053382
 H                 -9.16941341   -0.26785282    0.28389385
 C                 -9.38830461   -0.09422981   -1.84612373
 H                 -9.30322373    0.96507718   -1.72150450
 H                 -8.81647235   -0.40030984   -2.69713658
 C                -10.86673032   -0.46891751   -2.05935259
 H                -11.42513822   -0.23332840   -1.17754853
 H                -10.94358247   -1.51696905   -2.26080165
 C                -11.43085590    0.32573332   -3.25178388
 H                -11.36590119    1.37352664   -3.04487800
 H                -10.86423350    0.09998250   -4.13091732
 C                -12.90398004   -0.06274279   -3.47670961
 H                -13.46853083    0.15292039   -2.59371935
 H                -13.29909155    0.49736137   -4.29833618
 C                -12.99590734   -1.56774375   -3.78995309
 H                -12.16047712   -1.85842656   -4.39199947
 H                -12.98722526   -2.12353050   -2.87566336
 C                -14.30272525   -1.85446078   -4.55259343
 H                -14.28015685   -1.35572517   -5.49898312
 H                -15.13448860   -1.49825922   -3.98146282
 C                -14.44490692   -3.37164798   -4.77514087
 H                -14.45357947   -3.87162269   -3.82917572
 H                -13.62029876   -3.72545684   -5.35801363
 C                -15.76142574   -3.66002454   -5.52026984
 H                -15.75386965   -3.15788634   -6.46509794
 H                -15.85893385   -4.71394586   -5.67724764
 H                -16.58619745   -3.30860685   -4.93618318
 Br                 0.35219693   -4.35347405   -0.35762409
 Br                -0.64658195    5.40031677   -0.66894633

