%mem=50GB
%nprocshared=8
#p opt pop=MKUFF b3lyp/lanl2dz

OBT_1m_14sc_Sn_opt.gjf

0 1
 C                  0.13982260    0.72029341    0.08342036
 C                  1.38582260    1.32729341    0.08342036
 C                  1.34382260    2.75029341    0.08342036
 C                  0.06582260    3.22629341    0.08342036
 S                 -1.10817740    1.95929341    0.08342036
 O                  2.51082260    0.55629341    0.08442036
 H                  2.21682260    3.38629341    0.08442036
 C                 -0.16417740   -0.69170659    0.08342036
 C                 -1.41017740   -1.29870659    0.08342036
 C                 -1.36917740   -2.72170659    0.08342036
 C                 -0.09017740   -3.19770659    0.08342036
 S                  1.08382260   -1.93170659    0.08442036
 O                 -2.53517740   -0.52770659    0.08342036
 H                 -2.24117740   -3.35870659    0.08342036
 C                  3.78820996    1.19894581    0.09781518
 H                  3.88689402    1.81455559   -0.77177441
 H                  3.87333478    1.80508959    0.97545034
 C                  4.89930999    0.13262098    0.10066074
 H                  4.80477760   -0.47865302    0.97376309
 H                  4.80999547   -0.47787885   -0.77353195
 C                  6.27501171    0.82473751    0.10507559
 H                  7.04700510    0.08384928    0.10836893
 H                  6.37005871    1.43499334   -0.76868289
 C                  6.40282294    1.70486677    1.36230938
 H                  6.02715306    2.68436178    1.15168728
 H                  5.83830022    1.27041455    2.16072366
 C                  7.88380847    1.80054150    1.77356138
 H                  8.45977991    2.16715777    0.94969889
 H                  7.98120705    2.46981959    2.60270574
 C                  8.39564399    0.40530276    2.17721131
 H                  7.66113980   -0.08243125    2.78344486
 H                  8.57576002   -0.17676140    1.29763213
 C                  9.70538382    0.54977415    2.97427442
 H                 10.10447129   -0.42071539    3.18350928
 H                  9.50884386    1.06043414    3.89378430
 C                 10.72360608    1.35605628    2.14678873
 H                 10.49974812    2.39950490    2.22426516
 H                 10.66858064    1.05462973    1.12159888
 C                 12.14321148    1.09438105    2.68330209
 H                 12.17747175    1.32315111    3.72799846
 H                 12.39650219    0.06542315    2.53501370
 C                 13.14895784    1.98437810    1.92965794
 H                 12.89952408    3.01349537    2.08328224
 H                 13.12220776    1.74588747    0.79971366
 H                 14.23671585    2.28179545    2.06104730
 C                 -3.06674453   -1.43744226   -0.88338748
 H                 -2.31865964   -1.65608071   -1.61650836
 H                 -3.36376443   -2.34249877   -0.39599452
 C                 -4.28839758   -0.79987656   -1.57090024
 H                 -3.95956977   -0.17626408   -2.37581001
 H                 -4.92470276   -1.57029827   -1.95360914
 C                 -5.06751261    0.04898435   -0.54912975
 H                 -4.70830226    1.05656184   -0.57473313
 H                 -4.92661143   -0.35509103    0.43156895
 C                 -6.56641401    0.02925305   -0.90198283
 H                 -7.09443956    0.69616581   -0.25289394
 H                 -6.69799082    0.34084274   -1.91711800
 C                 -7.11598051   -1.39879022   -0.72800279
 H                 -6.80245316   -2.00451814   -1.55243853
 H                 -6.74232522   -1.81614936    0.18364028
 C                 -8.65457606   -1.35435246   -0.67953615
 H                 -9.03922391   -2.35214234   -0.64263930
 H                 -8.96864705   -0.81857919    0.19178837
 C                 -9.18753825   -0.64495618   -1.93822921
 H                 -9.10245737    0.41435081   -1.81360998
 H                 -8.61570599   -0.95103621   -2.78924206
 C                -10.66596396   -1.01964388   -2.15145807
 H                -11.22437186   -0.78405477   -1.26965401
 H                -10.74281611   -2.06769542   -2.35290713
 C                -11.23008954   -0.22499305   -3.34388936
 H                -11.16513483    0.82280027   -3.13698348
 H                -10.66346714   -0.45074387   -4.22302280
 C                -12.70321368   -0.61346916   -3.56881509
 H                -13.27174334   -0.37834473   -2.69337776
 H                -13.09222411   -0.06884933   -4.40365646
 H                -12.43255707   -1.53589317   -3.99116442
 Sn                -0.23017740    5.34529341    0.08442036
 C                  0.49282260    6.36829341    1.85642036
 H                  1.55382260    6.48929341    1.79042036
 H                  0.02882260    7.33029341    1.92742036
 H                  0.25282260    5.79129341    2.72442036
 C                 -2.40017740    5.34529341    0.08442036
 H                 -2.75717740    4.84329341   -0.79057964
 H                 -2.75717740    4.83929341    0.95742036
 H                 -2.75717740    6.35429341    0.08642036
 C                  0.49282260    6.36829341   -1.68757964
 H                  0.06882260    7.35029341   -1.73057964
 H                  1.55982260    6.44229341   -1.64657964
 H                  0.20682260    5.81829341   -2.55857964
 Sn                 0.33382260   -5.29570659    0.08442036
 C                  1.72282260   -6.11770659   -1.36657964
 H                  2.72582260   -5.95270659   -1.03357964
 H                  1.54982260   -7.16870659   -1.46957964
 H                  1.57682260   -5.63770659   -2.31157964
 C                  1.39682260   -5.88770659    1.88142036
 H                  1.36382260   -6.95270659    1.98042036
 H                  2.41482260   -5.56670659    1.81542036
 H                  0.93482260   -5.43570659    2.73442036
 C                 -1.42417740   -6.56770659    0.08542036
 H                 -2.02017740   -6.35170659    0.94642036
 H                 -1.99617740   -6.38570659   -0.80057964
 H                 -1.12117740   -7.59370659    0.10942036

