! Structure optimisation of oxy-bi-thiophene two monomer with methyl group 
%mem=50GB
%nprocshared=8
#p opt pop=ChelpG b3lyp/6-311g**

OBT_4m_opt.gjf

0 1
 C                        4.67200000   -0.13400000    0.00000000
 C                        5.34600000    1.07500000    0.00000000
 C                        6.77300000    0.98700000    0.00000000
 C                        7.23300000   -0.29500000    0.00000000
 S                        5.89900000   -1.50000000    0.00000000
 O                        4.60800000    2.25500000    0.00000000
 H                        7.42700000    1.84500000    0.00000000
 C                        3.26800000   -0.38000000    0.00000000
 C                        2.59100000   -1.58800000    0.00000000
 C                        1.17400000   -1.50800000    0.00000000
 C                        0.67800000   -0.22400000    0.00000000
 S                        2.04600000    0.98700000    0.00000000
 O                        3.33100000   -2.76500000    0.00000000
 H                        0.53000000   -2.37300000    0.00000000
 C                        5.31700000    3.52200000    0.00000000
 H                        5.93500000    3.62700000   -0.89500000
 H                        5.93500000    3.62700000    0.89500000
 H                        4.54200000    4.28100000    0.00000000
 C                        2.62600000   -4.03600000    0.00000000
 H                        3.40400000   -4.79100000    0.00000000
 H                        2.00900000   -4.14200000    0.89500000
 H                        2.00900000   -4.14200000   -0.89500000
 C                       -3.26800000    0.38000000    0.00000000
 C                       -2.59100000    1.58800000    0.00000000
 C                       -1.17400000    1.50700000    0.00000000
 C                       -0.67800000    0.22300000    0.00000000
 S                       -2.04600000   -0.98700000    0.00000000
 O                       -3.33100000    2.76500000    0.00000000
 H                       -0.53000000    2.37200000    0.00000000
 C                       -4.67200000    0.13400000    0.00000000
 C                       -5.34600000   -1.07400000    0.00000000
 C                       -6.77300000   -0.98600000    0.00000000
 C                       -7.23300000    0.29500000    0.00000000
 S                       -5.89900000    1.50000000    0.00000000
 O                       -4.60900000   -2.25500000    0.00000000
 H                       -7.42700000   -1.84400000    0.00000000
 C                       -2.62500000    4.03600000    0.00000000
 H                       -2.00800000    4.14200000   -0.89400000
 H                       -2.00900000    4.14200000    0.89500000
 H                       -3.40400000    4.79100000    0.00000000
 C                       -5.31800000   -3.52200000    0.00000000
 H                       -4.54300000   -4.28100000    0.00000000
 H                       -5.93500000   -3.62700000    0.89400000
 H                       -5.93500000   -3.62700000   -0.89500000
 H                       -8.25000000    0.64200000    0.00000000
 C                       20.67926537   -0.55968006    0.00000000
 C                       21.35326537    0.64931994    0.00000000
 C                       22.78026537    0.56131994    0.00000000
 C                       23.24026537   -0.72068006    0.00000000
 S                       21.90626537   -1.92568006    0.00000000
 O                       20.61526537    1.82931994    0.00000000
 H                       23.43426537    1.41931994    0.00000000
 C                       19.27526537   -0.80568006    0.00000000
 C                       18.59826537   -2.01368006    0.00000000
 C                       17.18126537   -1.93368006    0.00000000
 C                       16.68526537   -0.64968006    0.00000000
 S                       18.05326537    0.56131994    0.00000000
 O                       19.33826537   -3.19068006    0.00000000
 H                       16.53726537   -2.79868006    0.00000000
 C                       21.32426537    3.09631994    0.00000000
 H                       21.94226537    3.20131994   -0.89500000
 H                       21.94226537    3.20131994    0.89500000
 H                       20.54926537    3.85531994    0.00000000
 C                       18.63326537   -4.46168006    0.00000000
 H                       19.41126537   -5.21668006    0.00000000
 H                       18.01626537   -4.56768006    0.89500000
 H                       18.01626537   -4.56768006   -0.89500000
 H                       24.25826537   -1.06768006    0.00000000
 C                       12.73926537   -0.04568006    0.00000000
 C                       13.41626537    1.16231994    0.00000000
 C                       14.83326537    1.08131994    0.00000000
 C                       15.32926537   -0.20268006    0.00000000
 S                       13.96126537   -1.41268006    0.00000000
 O                       12.67626537    2.33931994    0.00000000
 H                       15.47726537    1.94631994    0.00000000
 C                       11.33526537   -0.29168006    0.00000000
 C                       10.66126537   -1.49968006    0.00000000
 C                        9.23426537   -1.41168006    0.00000000
 C                        8.77426537   -0.13068006    0.00000000
 S                       10.10826537    1.07431994    0.00000000
 O                       11.39826537   -2.68068006    0.00000000
 H                        8.58026537   -2.26968006    0.00000000
 C                       13.38226537    3.61031994    0.00000000
 H                       13.99926537    3.71631994   -0.89400000
 H                       13.99826537    3.71631994    0.89500000
 H                       12.60326537    4.36531994    0.00000000
 C                       10.68926537   -3.94768006    0.00000000
 H                       11.46426537   -4.70668006    0.00000000
 H                       10.07226537   -4.05268006    0.89400000
 H                       10.07226537   -4.05268006   -0.89500000

