%mem=50GB
%nprocshared=8
#p opt b3lyp/6-311g(d,p) pop=chelpg

O3G_4m_0sc_opt_pop.gjf

0 1
 C                  3.28400000    0.20800000    0.00000000
 C                  2.66700000    1.45300000    0.00000000
 C                  1.25100000    1.44500000    0.00000000
 C                  0.68700000    0.18700000    0.00000000
 S                  1.99200000   -1.09400000    0.00000000
 O                  3.46800000    2.58900000    0.00000000
 H                  0.65200000    2.34200000    0.00000000
 C                  4.66800000   -0.10400000    0.00000000
 C                  5.28500000   -1.34800000    0.00000000
 C                  6.70100000   -1.34000000    0.00000000
 C                  7.26400000   -0.08200000    0.00000000
 S                  5.96000000    1.19900000    0.00000000
 O                  4.48400000   -2.48400000    0.00000000
 H                  7.30100000   -2.23700000    0.00000000
 C                  5.12300000   -3.79000000    0.00000000
 H                  4.30700000   -4.50400000    0.00000000
 H                  5.73400000   -3.92700000   -0.89400000
 H                  5.73400000   -3.92700000    0.89500000
 C                 11.23500000    0.31300000    0.00000000
 C                 10.62200000    1.55500000    0.00000000
 C                  9.20400000    1.54900000    0.00000000
 C                  8.64000000    0.29300000    0.00000000
 S                  9.94400000   -0.98800000    0.00000000
 O                 11.42300000    2.69200000    0.00000000
 H                  8.60600000    2.44700000    0.00000000
 C                 12.62400000   -0.00500000    0.00000000
 C                 13.23400000   -1.24800000    0.00000000
 C                 14.66400000   -1.23400000    0.00000000
 C                 15.19000000    0.02100000    0.00000000
 S                 13.92100000    1.29400000    0.00000000
 O                 12.43600000   -2.38800000    0.00000000
 H                 15.27200000   -2.12500000    0.00000000
 C                 10.78600000    3.99800000    0.00000000
 H                 10.17500000    4.13600000    0.89500000
 H                 10.17500000    4.13600000   -0.89500000
 H                 11.60300000    4.71100000    0.00000000
 C                 13.07800000   -3.69100000    0.00000000
 H                 12.26400000   -4.40800000    0.00000000
 H                 13.68900000   -3.82800000   -0.89500000
 H                 13.68900000   -3.82800000    0.89500000
 H                 16.22400000    0.31500000    0.00000000
 C                -12.62400000    0.00500000    0.00000000
 C                -13.23400000    1.24800000    0.00000000
 C                -14.66400000    1.23400000    0.00000000
 C                -15.19000000   -0.02100000    0.00000000
 S                -13.92100000   -1.29400000    0.00000000
 O                -12.43600000    2.38800000    0.00000000
 H                -15.27200000    2.12500000    0.00000000
 C                -11.23500000   -0.31300000    0.00000000
 C                -10.62200000   -1.55500000    0.00000000
 C                 -9.20400000   -1.54900000    0.00000000
 C                 -8.64000000   -0.29300000    0.00000000
 S                 -9.94400000    0.98800000    0.00000000
 O                -11.42300000   -2.69200000    0.00000000
 H                 -8.60600000   -2.44700000    0.00000000
 C                -13.07800000    3.69100000    0.00000000
 H                -13.68900000    3.82800000    0.89500000
 H                -13.68900000    3.82800000   -0.89500000
 H                -12.26400000    4.40800000    0.00000000
 C                -10.78600000   -3.99800000    0.00000000
 H                -11.60300000   -4.71100000    0.00000000
 H                -10.17500000   -4.13600000   -0.89500000
 H                -10.17500000   -4.13600000    0.89500000
 H                -16.22400000   -0.31500000    0.00000000
 C                 -4.66800000    0.10400000    0.00000000
 C                 -5.28500000    1.34800000    0.00000000
 C                 -6.70100000    1.34000000    0.00000000
 C                 -7.26400000    0.08200000    0.00000000
 S                 -5.96000000   -1.19900000    0.00000000
 O                 -4.48400000    2.48400000    0.00000000
 H                 -7.30100000    2.23700000    0.00000000
 C                 -3.28400000   -0.20800000    0.00000000
 C                 -2.66700000   -1.45300000    0.00000000
 C                 -1.25100000   -1.44500000    0.00000000
 C                 -0.68700000   -0.18700000    0.00000000
 S                 -1.99200000    1.09400000    0.00000000
 O                 -3.46800000   -2.58900000    0.00000000
 H                 -0.65200000   -2.34200000    0.00000000
 C                 -5.12300000    3.79000000    0.00000000
 H                 -5.73400000    3.92700000    0.89500000
 H                 -5.73400000    3.92700000   -0.89500000
 H                 -4.30700000    4.50400000    0.00000000
 C                  2.56736598    3.69974676    0.00000000
 H                  1.95225628    3.66017352   -0.87462793
 H                  1.94962457    3.65803964    0.87267179
 C                  3.37183673    5.01291807    0.00281537
 H                  3.98719572    5.05233863    0.87727483
 H                  3.98932937    5.05477764   -0.87002518
 C                  2.40192251    6.20910625    0.00330073
 H                  1.78588089    6.16913163   -0.87065280
 H                  1.78511171    6.16779898    0.87664954
 C                  3.20639447    7.52227914    0.00465641
 H                  3.82303237    7.56369213   -0.86880948
 H                  3.82260959    7.56214786    0.87849244
 C                  2.23647954    8.71846656    0.00547943
 H                  1.62015932    8.67851220   -0.86827857
 H                  1.61994727    8.67713807    0.87902389
 C                  3.04095088   10.03164003    0.00660977
 H                  3.65759603   10.07289897   -0.86685829
 H                  3.65715871   10.07166345    0.88044388
 C                  2.07103538   11.22782713    0.00721334
 H                  1.45439269   11.18656909    0.88068318
 H                  1.45482515   11.18780206   -0.86661899
 C                  2.87550673   12.54100061    0.00833858
 H                  3.49212425   12.58227309   -0.86514835
 H                  3.49174220   12.58101050    0.88215381
 C                  1.90559122   13.73718767    0.00899137
 H                  1.28899197   13.69592890    0.88249185
 H                  1.28933753   13.69716329   -0.86481034
 C                  2.71006257   15.05036118    0.01007766
 H                  3.32665023   15.09162606   -0.86343071
 H                  2.03616024   15.88147815    0.01054702
 H                  3.32632792   15.09037870    0.88387147
 C                 -2.42350733   -3.56569599    0.00000000
 H                 -1.81849531   -3.44088977   -0.87366119
 H                 -1.81847240   -3.44086526    0.87364182
 C                 -3.04023246   -4.97681261    0.00002787
 H                 -3.64365975   -5.10231111    0.87468531
 H                 -3.64685041   -5.10095115   -0.87261425
 C                 -1.91539684   -6.02863796   -0.00284479
 H                 -1.31173914   -5.90289318   -0.87730784
 H                 -1.30900878   -5.90474538    0.86999205
 C                 -2.53212292   -7.43975406   -0.00337692
 H                 -3.13796789   -7.56388356   -0.87655717
 H                 -3.13632515   -7.56526098    0.87074418
 C                 -1.40728554   -8.49157976   -0.00526311
 H                 -0.80292732   -8.36590585   -0.87925236
 H                 -0.80159703   -8.36761657    0.86804930
 C                 -2.02401124   -9.90269583   -0.00617514
 H                 -2.62955329  -10.02672267   -0.87958007
 H                 -2.62851659  -10.02830562    0.86772157
 C                 -0.89917314  -10.95452122   -0.00779492
 H                 -0.29462435  -10.82886463   -0.88165485
 H                 -0.29367463  -10.83054051    0.86564675
 C                 -1.51589890  -12.36563720   -0.00881264
 H                 -2.12134764  -12.48963933   -0.88228576
 H                 -2.12049765  -12.49127156    0.86501592
 C                 -0.39106076  -13.41746267   -0.01034189
 H                  0.21355359  -13.29181123   -0.88415720
 H                  0.21437224  -13.29347689    0.86314447
 C                 -1.00778654  -14.82857861   -0.01139761
 H                 -1.61319757  -14.95257367   -0.88489787
 H                 -0.22624314  -15.55939244   -0.01243228
 H                 -1.61242301  -14.95421999    0.86240384

