%mem=50GB
%nprocshared=8
#p opt b3lyp/6-311g**

E.gjf

0  1
C          -0.70600         0.15400         0.00000
C          -1.31000         1.40100        -0.00100
C          -2.73300         1.36200         0.00100
C          -3.21200         0.08600         0.00400
S          -1.94800        -1.09100         0.00400
O          -0.53600         2.52400        -0.00300
H          -3.36600         2.23700         0.00200
C           0.70600        -0.15400        -0.00200
C           1.31000        -1.40100        -0.00100
C           2.73300        -1.36300        -0.00300
C           3.21200        -0.08600        -0.00600
S           1.94900         1.09100        -0.00500
O           0.53600        -2.52400         0.00200
H           3.36800        -2.23700        -0.00300
C          -1.17500         3.76500         0.08000
H          -1.80300         3.87900         0.97100
H          -1.80500         3.87600        -0.81000
C          -0.08800         4.82400         0.07600
H           0.54900         4.70900         0.96400
H           0.54600         4.70600        -0.81400
C          -0.91800         6.38000         0.01100
H          -1.54600         6.49400         0.90200
H          -1.54800         6.49100        -0.87900
C           0.16900         7.43900         0.00700
H           0.80600         7.32400         0.89500
H           0.80300         7.32100        -0.88300
O          -0.48300         8.69500         0.00600
C           0.41000         9.79500         0.00300
H           1.05700         9.77800         0.89100
H           1.05400         9.77500        -0.88700
C          -0.42500        11.06300         0.00200
H          -1.07100        11.08000         0.89200
H          -1.07400        11.07900        -0.88500
O           0.46700        12.16000        -0.00100
C          -0.18400        13.41700        -0.00100
H          -0.81900        13.53100         0.88800
H          -0.82200        13.52900        -0.88900
C           0.88900        14.49000        -0.00400
H           1.52600        14.37400        -0.89400
H           1.52900        14.37600         0.88400
O           0.23700        15.74400        -0.00500
C           1.13700        16.83300        -0.00800
H           1.77900        16.82600        -0.90100
H           0.54000        17.74600        -0.00900
H           1.78200        16.82900         0.88300
C           1.14800        -3.83100         0.02200
H           1.77700        -3.94200         0.91200
H           1.77400        -3.94500        -0.86900
C           0.06000        -4.89000         0.02600
H          -0.57200        -4.77200         0.91600
H          -0.57500        -4.77500        -0.86300
C           0.72600        -6.26200        -0.08400
H           1.35500        -6.37300         0.80600
H           1.35200        -6.37600        -0.97500
C          -0.36200        -7.32100        -0.08000
H          -0.99400        -7.20300         0.81000
H          -0.99700        -7.20600        -0.96900
O           0.29000        -8.57700        -0.07900
C          -0.60200        -9.67700        -0.07500
H          -1.24700        -9.65700         0.81500
H          -1.24900        -9.66000        -0.96300
C           0.23300       -10.94500        -0.07500
H           0.88200       -10.96100         0.81300
H           0.87900       -10.96300        -0.96400
O          -0.66100       -12.04200        -0.07200
C          -0.01000       -13.29900        -0.07000
H           0.62900       -13.41000         0.81900
H           0.62600       -13.41400        -0.95900
C          -1.08400       -14.37200        -0.06600
H          -1.72300       -14.25800        -0.95400
H          -1.72000       -14.25500         0.82400
O          -0.43200       -15.62600        -0.06500
C          -1.33100       -16.71500        -0.06200
H          -1.97600       -16.71100        -0.95300
H          -0.73400       -17.62800        -0.06100
H          -1.97300       -16.70700         0.83100
H           4.23500         0.31400        -0.00800
H          -4.28300        -0.45300         0.00600

