%mem=50GB
%nprocshared=8
#p opt b3lyp/6-311g**

M.gjf

0  1
 C          -0.70600         0.15400         0.00000
 C          -1.31000         1.40100        -0.00100
 C          -2.73300         1.36200         0.00100
 C          -3.21200         0.08600         0.00400
 S          -1.94800        -1.09100         0.00400
 O          -0.53600         2.52400        -0.00300
 H          -3.36600         2.23700         0.00200
 C           0.70600        -0.15400        -0.00200
 C           1.31000        -1.40100        -0.00100
 C           2.73300        -1.36300        -0.00300
 C           3.21200        -0.08600        -0.00600
 S           1.94900         1.09100        -0.00500
 O           0.53600        -2.52400         0.00200
 H           3.36800        -2.23700        -0.00300
 C          -0.99200         3.86800        -0.18200
 H          -1.15100         3.84000        -1.23900
 H          -1.90800         4.11900         0.31000
 C           0.10400         5.04700        -0.02700
 H           0.77500         4.98000         0.80400
 H           0.65400         4.94600        -0.93900
 C          -0.59600         6.39300        -0.00500
 H          -1.28700         6.46900        -0.85600
 H          -1.18200         6.49500         0.91900
 O           0.41400         7.38100        -0.07900
 C          -0.08900         8.70500        -0.06900
 H          -0.75900         8.87700        -0.92300
 H          -0.65400         8.90300         0.85200
 C           1.09900         9.64800        -0.15300
 H           1.66500         9.44600        -1.07400
 H           1.77000         9.47400         0.70000
 O           0.59500        10.96900        -0.14300
 C           1.60500        11.95800        -0.21800
 H           2.19100        11.85200        -1.14100
 H           2.29600        11.87900         0.63300
 C           0.92300        13.31300        -0.19900
 H           0.33400        13.41800         0.72500
 H           0.22900        13.39100        -1.04900
 O           1.93200        14.30000        -0.27300
 C           1.41900        15.61600        -0.26200
 H           0.86000        15.82500         0.66100
 H           2.27000        16.29500        -0.32200
 H           0.75500        15.79900        -1.11900
 C           1.13200        -3.71000        -0.23700
 H           1.76100        -3.82100         0.65300
 H           1.75800        -3.82400        -1.12800
 C          -0.02600        -4.79400         0.05100
 H          -0.54800        -4.92400        -0.90400
 H          -0.76100        -4.54000         0.82300
 C           0.69100        -6.07900         0.42500
 H           1.43200        -6.33000        -0.34600
 H           1.21900        -5.94700         1.37900
 O          -0.29900        -7.08500         0.52700
 C           0.22000        -8.35600         0.87300
 H           0.94400        -8.70300         0.12200
 H           0.73100        -8.31900         1.84500
 C          -0.94700        -9.32400         0.94500
 H          -1.46000        -9.36000        -0.02700
 H          -1.67200        -8.97600         1.69500
 O          -0.42600       -10.59300         1.29200
 C          -1.41500       -11.60100         1.39400
 H          -1.94600       -11.72800         0.43800
 H          -2.15900       -11.34600         2.16200
 C          -0.71500       -12.89500         1.76700
 H          -0.18300       -12.76500         2.72100
 H           0.02900       -13.14800         0.99800
 O          -1.70500       -13.89900         1.86900
 C          -1.17600       -15.16200         2.21500
 H          -0.67100       -15.13600         3.19200
 H          -2.01200       -15.86000         2.26700
 H          -0.45800       -15.52000         1.46300
 H          -4.21300        -0.27800        -0.05800
 H           4.25800         0.18100         0.06700

