%mem=50GB
%nprocshared=8
#p opt b3lyp/6-311g**

P.gjf

0  1
C          -0.70600         0.15400         0.00000
C          -1.31000         1.40100        -0.00100
C          -2.73300         1.36200         0.00100
C          -3.21200         0.08600         0.00400
S          -1.94800        -1.09100         0.00400
O          -0.53600         2.52400        -0.00300
H          -3.36600         2.23700         0.00200
C           0.70600        -0.15400        -0.00200
C           1.31000        -1.40100        -0.00100
C           2.73300        -1.36300        -0.00300
C           3.21200        -0.08600        -0.00600
S           1.94900         1.09100        -0.00500
O           0.53600        -2.52400         0.00200
H           3.36800        -2.23700        -0.00300
C          -1.04100         3.84100        -0.08100
H          -1.66900         3.95500         0.81000
H          -1.67100         3.95200        -0.97100
C           0.04600         4.90000        -0.08500
H           0.68300         4.78500         0.80300
H           0.68000         4.78200        -0.97500
C          -0.60600         6.15600        -0.08600
H          -1.22200         6.21700        -0.95900
H          -1.17600         6.21600         0.81800
C           0.64000         7.29200        -0.03700
H           1.06200         7.27700        -1.04800
H           1.46200         7.25900         0.68700
C          -0.17200         8.55900         0.16400
H          -1.00100         8.58900        -0.55700
H          -0.60100         8.57100         1.17500
O           0.71300         9.64600        -0.02900
C           0.09400        10.91200         0.12600
H          -0.72400        11.04000        -0.59600
H          -0.32400        11.02200         1.13600
C           1.15500        11.97200        -0.10700
H           1.57400        11.85800        -1.11700
H           1.97400        11.84200         0.61400
O           0.53600        13.23400         0.04800
C           1.42000        14.32300        -0.14500
H           1.84900        14.30700        -1.15600
H           2.24900        14.28900         0.57500
C           0.62400        15.60100         0.05100
H           0.19200        15.61600         1.06400
H          -0.20800        15.63300        -0.66900
O           1.50800        16.68700        -0.14100
C           0.88000        17.94200         0.01600
H           0.46700        18.06500         1.02800
H           1.64000        18.70700        -0.15100
H           0.06600        18.08300        -0.71000
C           1.25600        -3.70400         0.03100
H           1.88500        -3.81500         0.92100
H           1.88200        -3.81800        -0.86000
C           0.16800        -4.76300         0.03500
H          -0.46400        -4.64500         0.92500
H          -0.46700        -4.64800        -0.85400
C           0.82000        -6.01900         0.03600
H           1.43600        -6.08000         0.90800
H           1.38900        -6.07900        -0.86800
C          -0.10700        -7.22100         0.09000
H          -0.71300        -7.17400        -0.82100
H          -0.77200        -7.17300         0.95900
C           0.68100        -8.51900         0.11700
H           1.35200        -8.56500        -0.75000
H           1.29400        -8.56400         1.02800
O          -0.26400        -9.57200         0.08700
C           0.32400       -10.86000         0.10700
H           0.98400       -11.00500        -0.76000
H           0.92400       -11.00300         1.01700
C          -0.80100       -11.87900         0.07200
H          -1.40300       -11.73500        -0.83800
H          -1.46100       -11.73200         0.93800
O          -0.21000       -13.16500         0.09300
C          -1.15400       -14.21900         0.06200
H          -1.77000       -14.16900        -0.84900
H          -1.82900       -14.16800         0.92800
C          -0.38300       -15.52600         0.08800
H           0.23300       -15.57300         0.99800
H           0.29200       -15.57500        -0.77900
O          -1.32800       -16.57700         0.05800
C          -0.73000       -17.85700         0.07900
H          -0.13500       -18.01100         0.99100
H          -1.53600       -18.59100         0.05300
H          -0.07600       -18.01200        -0.79200
H          -4.19500        -0.26100         0.00900
H           4.23100         0.34000        -0.01300

