%mem=50GB
%nprocshared=8
#p opt b3lyp/6-311g(d,p)

monomer.pdb

0 1
 C          80.41700         0.09400        -0.03500
 C          81.01400         1.38300        -0.16900
 C          82.39200         1.36500        -0.26900
 C          82.90000         0.05200        -0.21200
 S          81.60800        -1.14300        -0.03900
 O          80.20300         2.44400        -0.30500
 H          83.09500         2.14400        -0.54900
 C          79.04200        -0.22100        -0.07600
 C          78.38400        -1.45400        -0.04400
 C          77.00700        -1.36500        -0.10500
 C          76.47900        -0.06000        -0.21200
 S          77.84000         1.07800        -0.18300
 O          79.07800        -2.52400         0.27800
 H          76.41100        -2.26400        -0.12200
 C          79.67100         3.13400         0.79900
 H          78.65500         3.31100         0.44900
 H          79.64500         2.47300         1.67000
 C          80.19800         4.55200         1.09400
 H          80.29600         4.76100         2.15700
 H          79.38200         5.17100         0.72900
 O          81.38900         4.93300         0.43800
 C          82.50700         4.42600         1.13200
 H          82.62100         4.78500         2.15500
 H          82.38400         3.35200         1.22000
 C          83.72900         4.69400         0.40800
 H          83.47200         4.41900        -0.61000
 H          84.62600         4.19800         0.76500
 O          83.89800         6.12500         0.24100
 C          84.74200         6.66700         1.25600
 H          84.63200         6.35400         2.28300
 H          85.79000         6.50900         0.98700
 C          84.43000         8.13200         1.15500
 H          83.39500         8.31900         1.42400
 H          84.70600         8.63000         0.23200
 O          85.21100         8.85100         2.12800
 C          84.86800        10.21900         2.14600
 H          85.35200        10.80500         2.92000
 H          85.09500        10.74200         1.22200
 H          83.81800        10.44800         2.35500
 C          79.33100        -3.46000        -0.74400
 H          80.40100        -3.36900        -0.95200
 H          78.85800        -3.24300        -1.70900
 C          78.96000        -4.86100        -0.43300
 H          79.05100        -5.37000        -1.39000
 H          79.72600        -5.39600         0.13000
 O          77.62300        -5.10900         0.14800
 C          76.64900        -4.87600        -0.82200
 H          76.80700        -5.67300        -1.55700
 H          76.85400        -3.91000        -1.26700
 C          75.29600        -4.95100        -0.18100
 H          75.42800        -4.70400         0.87300
 H          74.68000        -4.17900        -0.65100
 O          74.87200        -6.29700        -0.26300
 C          73.96100        -6.66300        -1.21000
 H          73.43800        -5.87900        -1.75600
 H          73.17600        -7.15300        -0.65200
 C          74.56900        -7.57100        -2.20100
 H          73.87900        -7.47500        -3.04200
 H          75.42800        -7.14800        -2.71600
 O          74.89000        -8.84700        -1.84000
 C          73.67200        -9.68800        -1.70500
 H          73.88000       -10.74200        -1.52800
 H          72.95400        -9.55900        -2.50700
 H          73.23100        -9.38700        -0.75800

