%mem=10GB
%nprocshared=8
%chk=temp.chk
# opt=modredundant wb97xd/6-311+g(d,p) geom=connectivity

Title Card Required

0 1
 C                 -0.59366300   -0.41063200   -0.00008700
 C                 -1.91733900    0.00391400   -0.00003000
 C                 -2.86398300   -1.05920700   -0.00001200
 C                 -2.25936400   -2.28460000   -0.00009600
 S                 -0.53724000   -2.16836800   -0.00024000
 H                 -3.93603800   -0.92508600    0.00004900
 H                 -2.73094300   -3.25515600   -0.00012200
 C                  0.59366300    0.41063200   -0.00008700
 C                  1.91733900   -0.00391400   -0.00002300
 S                  0.53724000    2.16836800   -0.00024500
 C                  2.86398300    1.05920700   -0.00000500
 C                  2.25936400    2.28460000   -0.00009500
 H                  3.93603800    0.92508600    0.00006200
 H                  2.73094300    3.25515600   -0.00012200
 O                 -2.20249100    1.33736900    0.00000500
 O                  2.20249100   -1.33736900    0.00002100
 H                 -3.12566966    1.60069585    0.00036360
 H                  3.12566967   -1.60069586    0.00035866

 1 2 1.5 5 1.0 8 1.5
 2 3 1.5 15 1.0
 3 4 2.0 6 1.0
 4 5 1.0 7 1.0
 5
 6
 7
 8 9 1.5 10 1.0
 9 11 1.5 16 1.0
 10 12 1.0
 11 12 2.0 13 1.0
 12 14 1.0
 13
 14
 15 17 1.0
 16 18 1.0
 17
 18

A 1 2 15 S 25 0.250000

